
Gurobi 11.0.0 (linux64) logging started Wed Apr 10 21:48:13 2024

Set parameter LogFile to value "/lustre1/scratch/348/vsc34888/JointResearch/05.Models/06.Benchmarking/B.Operation_cost/RTS24_ByStages_nc70/openStarNet_RTS24_ByStages_nc70.log"
Set parameter Method to value 2
Set parameter MIPFocus to value 1
Set parameter Presolve to value 2
Set parameter RINS to value 100
Set parameter MIPGap to value 0.01
Set parameter Threads to value 36
Set parameter TimeLimit to value 259200
Set parameter IterationLimit to value 760000000
Gurobi Optimizer version 11.0.0 build v11.0.0rc2 (linux64 - "Rocky Linux 8.8 (Green Obsidian)")

CPU model: Intel(R) Xeon(R) Gold 6140 CPU @ 2.30GHz, instruction set [SSE2|AVX|AVX2|AVX512]
Thread count: 36 physical cores, 36 logical processors, using up to 36 threads

Optimize a model with 27233 rows, 16397 columns and 72970 nonzeros
Model fingerprint: 0xba4813cc
Variable types: 16367 continuous, 30 integer (30 binary)
Coefficient statistics:
  Matrix range     [2e-02, 6e+02]
  Objective range  [1e+00, 1e+00]
  Bounds range     [4e-04, 3e+00]
  RHS range        [4e-04, 3e+00]
Presolve removed 14612 rows and 7734 columns
Presolve time: 0.16s
Presolved: 12621 rows, 8663 columns, 44494 nonzeros
Variable types: 8633 continuous, 30 integer (30 binary)
Found heuristic solution: objective 362.6027442
Root relaxation presolved: 12621 rows, 8663 columns, 44494 nonzeros

Root barrier log...

Ordering time: 0.01s

Barrier statistics:
 Dense cols : 30
 AA' NZ     : 9.335e+04
 Factor NZ  : 2.434e+05 (roughly 10 MB of memory)
 Factor Ops : 5.183e+06 (less than 1 second per iteration)
 Threads    : 36

                  Objective                Residual
Iter       Primal          Dual         Primal    Dual     Compl     Time
   0   7.90522771e+05 -8.04942376e+07  6.16e+00 3.04e+02  8.79e+03     0s
   1   1.34272012e+05 -2.50183275e+07  8.35e-01 2.25e-09  1.38e+03     0s
   2   4.32575503e+04 -3.72939924e+06  9.94e-02 1.36e-08  1.59e+02     0s
   3   2.28989275e+04 -3.25066275e+05  6.35e-04 8.07e-10  1.31e+01     0s
   4   5.74839727e+03 -3.81020927e+04  1.69e-05 6.92e-11  1.65e+00     0s
   5   1.63944315e+03 -7.90634025e+03  4.23e-06 1.28e-11  3.58e-01     0s
   6   6.28015779e+02 -1.91491743e+03  8.61e-07 3.25e-12  9.55e-02     0s
   7   4.33112274e+02 -4.29639341e+02  3.92e-07 1.82e-12  3.24e-02     0s
   8   2.88124675e+02 -5.52648447e+01  1.16e-07 1.82e-12  1.29e-02     0s
   9   2.57726052e+02  4.56378753e+01  7.61e-08 1.82e-12  7.96e-03     0s
  10   2.32720420e+02  1.29663958e+02  4.78e-08 1.82e-12  3.87e-03     0s
  11   2.08441864e+02  1.72142670e+02  2.16e-08 1.82e-12  1.36e-03     0s
  12   1.97553419e+02  1.81078580e+02  9.54e-09 1.82e-12  6.19e-04     0s
  13   1.94416369e+02  1.83994795e+02  6.32e-09 1.82e-12  3.91e-04     0s
  14   1.92814860e+02  1.85465413e+02  4.55e-09 1.82e-12  2.76e-04     0s
  15   1.91047769e+02  1.86511530e+02  2.59e-09 1.82e-12  1.70e-04     0s
  16   1.90082873e+02  1.87886035e+02  1.48e-09 3.64e-12  8.25e-05     0s
  17   1.89822314e+02  1.88291566e+02  1.18e-09 1.82e-12  5.75e-05     0s
  18   1.89154157e+02  1.88517494e+02  4.31e-10 3.64e-12  2.39e-05     1s
  19   1.88949601e+02  1.88679397e+02  2.05e-10 1.82e-12  1.01e-05     1s
  20   1.88810022e+02  1.88743125e+02  1.11e-10 1.82e-12  2.51e-06     1s
  21   1.88775338e+02  1.88760399e+02  3.55e-10 1.82e-12  5.61e-07     1s
  22   1.88764822e+02  1.88763992e+02  3.28e-10 1.82e-12  3.12e-08     1s
  23   1.88764727e+02  1.88764553e+02  3.58e-10 3.69e-12  6.55e-09     1s
  24   1.88764702e+02  1.88764617e+02  1.40e-10 3.46e-11  3.17e-09     1s
  25   1.88764688e+02  1.88764667e+02  8.85e-11 1.09e-11  8.03e-10     1s
  26   1.88764687e+02  1.88764678e+02  8.70e-11 2.85e-12  3.29e-10     1s
  27   1.88764685e+02  1.88764682e+02  7.66e-11 1.82e-12  9.08e-11     1s
  28   1.88764684e+02  1.88764684e+02  1.08e-10 3.64e-12  5.75e-13     1s

Barrier solved model in 28 iterations and 0.58 seconds (0.48 work units)
Optimal objective 1.88764684e+02


Root relaxation: objective 1.887647e+02, 1939 iterations, 0.41 seconds (0.21 work units)

    Nodes    |    Current Node    |     Objective Bounds      |     Work
 Expl Unexpl |  Obj  Depth IntInf | Incumbent    BestBd   Gap | It/Node Time

     0     0  188.76468    0   20  362.60274  188.76468  47.9%     -    0s
H    0     0                     310.5295193  191.27297  38.4%     -    1s
     0     0  191.27297    0   20  310.52952  191.27297  38.4%     -    1s
H    0     0                     308.4809356  191.28101  38.0%     -    1s
     0     0  191.28101    0   21  308.48094  191.28101  38.0%     -    1s
     0     0  191.28245    0   20  308.48094  191.28245  38.0%     -    1s
     0     0  191.28245    0   20  308.48094  191.28245  38.0%     -    1s
H    0     0                     277.3043671  192.36989  30.6%     -    2s
     0     0  192.36989    0   19  277.30437  192.36989  30.6%     -    2s
     0     0  192.37109    0   19  277.30437  192.37109  30.6%     -    2s
H    0     0                     262.0936023  192.37124  26.6%     -    2s
     0     0  192.37124    0   19  262.09360  192.37124  26.6%     -    2s
     0     0  192.44088    0   18  262.09360  192.44088  26.6%     -    2s
     0     0  192.49757    0   18  262.09360  192.49757  26.6%     -    2s
     0     0  192.49757    0   18  262.09360  192.49757  26.6%     -    2s
     0     0  192.81112    0   17  262.09360  192.81112  26.4%     -    3s
     0     0  192.84770    0   17  262.09360  192.84770  26.4%     -    3s
     0     0  192.84770    0   17  262.09360  192.84770  26.4%     -    3s
     0     0  192.88850    0   17  262.09360  192.88850  26.4%     -    3s
     0     0  192.88850    0   17  262.09360  192.88850  26.4%     -    3s
     0     0  193.87604    0   17  262.09360  193.87604  26.0%     -    4s
H    0     0                     221.7661634  193.87604  12.6%     -   20s
     0     2  193.87604    0   17  221.76616  193.87604  12.6%     -   20s
H   97   130                     220.9242879  198.84508  10.0%   589   41s
   819   475     cutoff   20       220.92429  200.15026  9.40%   350   45s
   897   492  204.32224    9   12  220.92429  200.15026  9.40%   351   57s
* 1153   524              21     220.9056281  200.15026  9.40%   342   57s
  1162   530     cutoff   15       220.90563  200.15026  9.40%   342   65s
  1793   653  210.14858   12   10  220.90563  201.09487  8.97%   309   76s
  2789   779     cutoff   12       220.90563  204.28248  7.52%   289   80s
  5998  1158     cutoff   14       220.90563  213.03089  3.56%   243  109s
  6190  1200  219.76896   16    5  220.90563  213.11201  3.53%   242  130s
  9274  1630  218.73613   15    7  220.90563  214.63479  2.84%   215  142s
 11696  1704  218.41953   14    7  220.90563  216.25220  2.11%   203  161s
 12296  1686     cutoff   16       220.90563  216.33677  2.07%   200  179s
 12766  1643     cutoff   19       220.90563  216.35078  2.06%   198  193s
 15189  1483  219.02196   13    9  220.90563  217.29757  1.63%   190  213s
 16055  1225  220.79473   18    4  220.90563  217.53325  1.53%   187  228s
 17719   612  220.21124   14    7  220.90563  218.12638  1.26%   182  230s

Cutting planes:
  Learned: 2
  Gomory: 2
  Implied bound: 123
  MIR: 545
  Relax-and-lift: 33

Explored 19689 nodes (3476430 simplex iterations) in 230.20 seconds (250.88 work units)
Thread count was 36 (of 36 available processors)

Solution count 8: 220.906 220.924 221.766 ... 362.603

Optimal solution found (tolerance 1.00e-02)
Best objective 2.209056281001e+02, best bound 2.186995017614e+02, gap 0.9987%

Gurobi 11.0.0 (linux64) logging started Wed Apr 10 21:52:06 2024

Set parameter LogFile to value "/lustre1/scratch/348/vsc34888/JointResearch/05.Models/06.Benchmarking/B.Operation_cost/RTS24_ByStages_nc70/openStarNet_RTS24_ByStages_nc70.log"
Set parameter Method to value 2
Set parameter MIPFocus to value 1
Set parameter Presolve to value 2
Set parameter RINS to value 100
Set parameter MIPGap to value 0.01
Set parameter Threads to value 36
Set parameter TimeLimit to value 259200
Set parameter IterationLimit to value 760000000
Gurobi Optimizer version 11.0.0 build v11.0.0rc2 (linux64 - "Rocky Linux 8.8 (Green Obsidian)")

CPU model: Intel(R) Xeon(R) Gold 6140 CPU @ 2.30GHz, instruction set [SSE2|AVX|AVX2|AVX512]
Thread count: 36 physical cores, 36 logical processors, using up to 36 threads

Optimize a model with 27233 rows, 16367 columns and 64540 nonzeros
Model fingerprint: 0x1516fbc6
Coefficient statistics:
  Matrix range     [2e-02, 6e+02]
  Objective range  [1e+00, 1e+00]
  Bounds range     [4e-04, 3e+00]
  RHS range        [4e-04, 5e+01]
Presolve removed 22732 rows and 8994 columns
Presolve time: 0.03s
Presolved: 4501 rows, 7443 columns, 20624 nonzeros

Ordering time: 0.00s

Barrier statistics:
 AA' NZ     : 1.150e+04
 Factor NZ  : 3.394e+04 (roughly 4 MB of memory)
 Factor Ops : 4.601e+05 (less than 1 second per iteration)
 Threads    : 1

                  Objective                Residual
Iter       Primal          Dual         Primal    Dual     Compl     Time
   0   1.70761538e+06 -5.67843048e+07  6.48e+00 3.47e+03  3.18e+04     0s
   1   1.23622009e+05 -3.28966300e+07  4.36e-01 3.39e-11  4.24e+03     0s
   2   6.35399722e+04 -8.69799215e+06  1.38e-01 8.00e-11  9.53e+02     0s
   3   3.44325090e+04 -9.34127722e+05  5.48e-03 5.09e-11  8.69e+01     0s
   4   2.06096675e+04 -1.00768595e+05  6.81e-12 3.44e-11  1.07e+01     0s
   5   7.78781577e+03 -2.81772723e+04  2.50e-12 7.28e-12  3.17e+00     0s
   6   2.58864994e+03 -9.25752206e+03  3.78e-13 7.28e-12  1.04e+00     0s
   7   8.36753922e+02 -4.08168468e+03  3.46e-13 7.28e-12  4.33e-01     0s
   8   4.35349102e+02 -1.26413519e+03  9.84e-13 7.28e-12  1.50e-01     0s
   9   3.52092741e+02 -3.77809861e+02  5.95e-13 7.28e-12  6.43e-02     0s
  10   3.05039985e+02  3.87100274e+00  6.11e-13 7.28e-12  2.65e-02     0s
  11   2.62438893e+02  1.23234328e+02  7.07e-13 7.28e-12  1.23e-02     0s
  12   2.39602044e+02  2.03689061e+02  8.33e-13 7.28e-12  3.16e-03     0s
  13   2.28510099e+02  2.13888711e+02  8.44e-13 7.28e-12  1.29e-03     0s
  14   2.22285300e+02  2.18908101e+02  1.13e-12 7.28e-12  2.97e-04     0s
  15   2.21095119e+02  2.20730245e+02  3.49e-12 7.28e-12  3.21e-05     0s
  16   2.20911847e+02  2.20892460e+02  6.95e-12 7.28e-12  1.71e-06     0s
  17   2.20905766e+02  2.20904372e+02  2.95e-11 7.28e-12  1.23e-07     0s
  18   2.20905641e+02  2.20905603e+02  2.36e-11 7.28e-12  3.34e-09     0s
  19   2.20905628e+02  2.20905628e+02  7.95e-13 7.28e-12  3.34e-12     0s
  20   2.20905628e+02  2.20905628e+02  2.45e-12 7.28e-12  2.29e-16     0s

Barrier solved model in 20 iterations and 0.10 seconds (0.09 work units)
Optimal objective 2.20905628e+02

Crossover log...

     761 DPushes remaining with DInf 0.0000000e+00                 0s
       0 DPushes remaining with DInf 0.0000000e+00                 0s

     269 PPushes remaining with PInf 0.0000000e+00                 0s
       0 PPushes remaining with PInf 0.0000000e+00                 0s

  Push phase complete: Pinf 0.0000000e+00, Dinf 1.8831564e-12      0s

Iteration    Objective       Primal Inf.    Dual Inf.      Time
     292    2.2090563e+02   0.000000e+00   0.000000e+00      0s

Use crossover to convert LP symmetric solution to basic solution...
Crossover log...

       0 DPushes remaining with DInf 0.0000000e+00                 0s

     150 PPushes remaining with PInf 0.0000000e+00                 0s
       0 PPushes remaining with PInf 0.0000000e+00                 0s

  Push phase complete: Pinf 0.0000000e+00, Dinf 1.6082300e-12      0s

Iteration    Objective       Primal Inf.    Dual Inf.      Time
     446    2.2090563e+02   0.000000e+00   0.000000e+00      0s

Solved in 446 iterations and 0.14 seconds (0.11 work units)
Optimal objective  2.209056281e+02
